row=6;
column=6;
left=[1, 2, 4, 0, 0, 0];
right=[0, 3, 2, 0, 0, 0];
top=[1, 0, 0, 4, 0, 0];
bottom=[0, 0, 0, 2, 0, 0];
Board=[|0,0,3,0,0,0|0,0,0,0,0,0|0,0,2,0,0,0|0,2,5,0,0,6|5,3,0,0,0,2|0,5,6,0,2,1|]